Generated POSCAR from win with the magnetic moments
1.0
     2.482029000      0.000000000      0.000000000
    -0.827343000      2.340079000      0.000000000
    -0.827343000     -1.170040000      2.026568000
Fe 
1 
direct
     0.000000000      0.000000000      0.000000000
# MAGMOM = 1.52420471 -1.07777549 1.8667619
