num_bands = 56
num_wann = 18
dis_win_min = -3.5
dis_win_max = 85.4
dis_froz_min = -6.5
dis_froz_max = 8.5
dis_num_iter = 500
num_iter = 200
conv_tol = 1.0d-6
bands_plot_format = gnuplot
bands_num_points = 100
guiding_centres = true
write_xyz = true
write_hr = true
bands_plot = true
spinors = true
begin projections 
Fe:s;pz;px;py;dz2;dxz;dyz;dx2-y2;dxy
end projections 

begin kpoint_path  
G 0.0000000000 0.0000000000 0.0000000000 H 0.5000000000 -0.50000000000 0.50000000000    
H 0.5000000000 -0.50000000000 0.50000000000 N 0.000000000 0.000000000 0.50000000000     
N 0.000000000 0.000000000 0.50000000000  G 0.0000000000 0.0000000000 0.0000000000
G 0.0000000000 0.0000000000 0.0000000000 P 0.250000000000 0.250000000000 0.25000000000
P 0.250000000000 0.250000000000 0.25000000000 N 0.000000000 0.0000000000 0.5000000000
end kpoint_path






begin unit_cell_cart
     2.4820290     0.0000000     0.0000000
    -0.8273430     2.3400790     0.0000000
    -0.8273430    -1.1700400     2.0265680
end unit_cell_cart

begin atoms_cart
Fe       0.0000000     0.0000000     0.0000000
end atoms_cart

mp_grid =     8     8     8

begin kpoints
      0.000000000000      0.000000000000      0.000000000000
      0.125000000000     -0.000000000000     -0.000000000000
      0.250000000000     -0.000000000000     -0.000000000000
      0.375000000000     -0.000000000000     -0.000000000000
      0.500000000000     -0.000000000000     -0.000000000000
     -0.375000000000      0.000000000000      0.000000000000
     -0.250000000000      0.000000000000      0.000000000000
     -0.125000000000      0.000000000000      0.000000000000
      0.000000000000      0.125000000000     -0.000000000000
      0.125000000000      0.125000000000     -0.000000000000
      0.250000000000      0.125000000000     -0.000000000000
      0.375000000000      0.125000000000     -0.000000000000
      0.500000000000      0.125000000000     -0.000000000000
     -0.375000000000      0.125000000000     -0.000000000000
     -0.250000000000      0.125000000000     -0.000000000000
     -0.125000000000      0.125000000000     -0.000000000000
      0.000000000000      0.250000000000     -0.000000000000
      0.125000000000      0.250000000000     -0.000000000000
      0.250000000000      0.250000000000     -0.000000000000
      0.375000000000      0.250000000000      0.000000000000
      0.500000000000      0.250000000000     -0.000000000000
     -0.375000000000      0.250000000000     -0.000000000000
     -0.250000000000      0.250000000000     -0.000000000000
     -0.125000000000      0.250000000000      0.000000000000
      0.000000000000      0.375000000000     -0.000000000000
      0.125000000000      0.375000000000     -0.000000000000
      0.250000000000      0.375000000000     -0.000000000000
      0.375000000000      0.375000000000     -0.000000000000
      0.500000000000      0.375000000000     -0.000000000000
     -0.375000000000      0.375000000000     -0.000000000000
     -0.250000000000      0.375000000000     -0.000000000000
     -0.125000000000      0.375000000000     -0.000000000000
      0.000000000000      0.500000000000     -0.000000000000
      0.125000000000      0.500000000000     -0.000000000000
      0.250000000000      0.500000000000     -0.000000000000
      0.375000000000      0.500000000000     -0.000000000000
      0.500000000000      0.500000000000     -0.000000000000
     -0.375000000000      0.500000000000     -0.000000000000
     -0.250000000000      0.500000000000      0.000000000000
     -0.125000000000      0.500000000000     -0.000000000000
      0.000000000000     -0.375000000000      0.000000000000
      0.125000000000     -0.375000000000      0.000000000000
      0.250000000000     -0.375000000000      0.000000000000
      0.375000000000     -0.375000000000      0.000000000000
      0.500000000000     -0.375000000000      0.000000000000
     -0.375000000000     -0.375000000000      0.000000000000
     -0.250000000000     -0.375000000000      0.000000000000
     -0.125000000000     -0.375000000000      0.000000000000
      0.000000000000     -0.250000000000      0.000000000000
      0.125000000000     -0.250000000000     -0.000000000000
      0.250000000000     -0.250000000000      0.000000000000
      0.375000000000     -0.250000000000      0.000000000000
      0.500000000000     -0.250000000000      0.000000000000
     -0.375000000000     -0.250000000000     -0.000000000000
     -0.250000000000     -0.250000000000      0.000000000000
     -0.125000000000     -0.250000000000      0.000000000000
      0.000000000000     -0.125000000000      0.000000000000
      0.125000000000     -0.125000000000      0.000000000000
      0.250000000000     -0.125000000000      0.000000000000
      0.375000000000     -0.125000000000      0.000000000000
      0.500000000000     -0.125000000000      0.000000000000
     -0.375000000000     -0.125000000000      0.000000000000
     -0.250000000000     -0.125000000000      0.000000000000
     -0.125000000000     -0.125000000000      0.000000000000
      0.000000000000      0.000000000000      0.125000000000
      0.125000000000     -0.000000000000      0.125000000000
      0.250000000000     -0.000000000000      0.125000000000
      0.375000000000     -0.000000000000      0.125000000000
      0.500000000000     -0.000000000000      0.125000000000
     -0.375000000000      0.000000000000      0.125000000000
     -0.250000000000      0.000000000000      0.125000000000
     -0.125000000000      0.000000000000      0.125000000000
      0.000000000000      0.125000000000      0.125000000000
      0.125000000000      0.125000000000      0.125000000000
      0.250000000000      0.125000000000      0.125000000000
      0.375000000000      0.125000000000      0.125000000000
      0.500000000000      0.125000000000      0.125000000000
     -0.375000000000      0.125000000000      0.125000000000
     -0.250000000000      0.125000000000      0.125000000000
     -0.125000000000      0.125000000000      0.125000000000
      0.000000000000      0.250000000000      0.125000000000
      0.125000000000      0.250000000000      0.125000000000
      0.250000000000      0.250000000000      0.125000000000
      0.375000000000      0.250000000000      0.125000000000
      0.500000000000      0.250000000000      0.125000000000
     -0.375000000000      0.250000000000      0.125000000000
     -0.250000000000      0.250000000000      0.125000000000
     -0.125000000000      0.250000000000      0.125000000000
      0.000000000000      0.375000000000      0.125000000000
      0.125000000000      0.375000000000      0.125000000000
      0.250000000000      0.375000000000      0.125000000000
      0.375000000000      0.375000000000      0.125000000000
      0.500000000000      0.375000000000      0.125000000000
     -0.375000000000      0.375000000000      0.125000000000
     -0.250000000000      0.375000000000      0.125000000000
     -0.125000000000      0.375000000000      0.125000000000
      0.000000000000      0.500000000000      0.125000000000
      0.125000000000      0.500000000000      0.125000000000
      0.250000000000      0.500000000000      0.125000000000
      0.375000000000      0.500000000000      0.125000000000
      0.500000000000      0.500000000000      0.125000000000
     -0.375000000000      0.500000000000      0.125000000000
     -0.250000000000      0.500000000000      0.125000000000
     -0.125000000000      0.500000000000      0.125000000000
      0.000000000000     -0.375000000000      0.125000000000
      0.125000000000     -0.375000000000      0.125000000000
      0.250000000000     -0.375000000000      0.125000000000
      0.375000000000     -0.375000000000      0.125000000000
      0.500000000000     -0.375000000000      0.125000000000
     -0.375000000000     -0.375000000000      0.125000000000
     -0.250000000000     -0.375000000000      0.125000000000
     -0.125000000000     -0.375000000000      0.125000000000
      0.000000000000     -0.250000000000      0.125000000000
      0.125000000000     -0.250000000000      0.125000000000
      0.250000000000     -0.250000000000      0.125000000000
      0.375000000000     -0.250000000000      0.125000000000
      0.500000000000     -0.250000000000      0.125000000000
     -0.375000000000     -0.250000000000      0.125000000000
     -0.250000000000     -0.250000000000      0.125000000000
     -0.125000000000     -0.250000000000      0.125000000000
      0.000000000000     -0.125000000000      0.125000000000
      0.125000000000     -0.125000000000      0.125000000000
      0.250000000000     -0.125000000000      0.125000000000
      0.375000000000     -0.125000000000      0.125000000000
      0.500000000000     -0.125000000000      0.125000000000
     -0.375000000000     -0.125000000000      0.125000000000
     -0.250000000000     -0.125000000000      0.125000000000
     -0.125000000000     -0.125000000000      0.125000000000
      0.000000000000      0.000000000000      0.250000000000
      0.125000000000     -0.000000000000      0.250000000000
      0.250000000000     -0.000000000000      0.250000000000
      0.375000000000     -0.000000000000      0.250000000000
      0.500000000000     -0.000000000000      0.250000000000
     -0.375000000000      0.000000000000      0.250000000000
     -0.250000000000      0.000000000000      0.250000000000
     -0.125000000000      0.000000000000      0.250000000000
      0.000000000000      0.125000000000      0.250000000000
      0.125000000000      0.125000000000      0.250000000000
      0.250000000000      0.125000000000      0.250000000000
      0.375000000000      0.125000000000      0.250000000000
      0.500000000000      0.125000000000      0.250000000000
     -0.375000000000      0.125000000000      0.250000000000
     -0.250000000000      0.125000000000      0.250000000000
     -0.125000000000      0.125000000000      0.250000000000
      0.000000000000      0.250000000000      0.250000000000
      0.125000000000      0.250000000000      0.250000000000
      0.250000000000      0.250000000000      0.250000000000
      0.375000000000      0.250000000000      0.250000000000
      0.500000000000      0.250000000000      0.250000000000
     -0.375000000000      0.250000000000      0.250000000000
     -0.250000000000      0.250000000000      0.250000000000
     -0.125000000000      0.250000000000      0.250000000000
      0.000000000000      0.375000000000      0.250000000000
      0.125000000000      0.375000000000      0.250000000000
      0.250000000000      0.375000000000      0.250000000000
      0.375000000000      0.375000000000      0.250000000000
      0.500000000000      0.375000000000      0.250000000000
     -0.375000000000      0.375000000000      0.250000000000
     -0.250000000000      0.375000000000      0.250000000000
     -0.125000000000      0.375000000000      0.250000000000
      0.000000000000      0.500000000000      0.250000000000
      0.125000000000      0.500000000000      0.250000000000
      0.250000000000      0.500000000000      0.250000000000
      0.375000000000      0.500000000000      0.250000000000
      0.500000000000      0.500000000000      0.250000000000
     -0.375000000000      0.500000000000      0.250000000000
     -0.250000000000      0.500000000000      0.250000000000
     -0.125000000000      0.500000000000      0.250000000000
      0.000000000000     -0.375000000000      0.250000000000
      0.125000000000     -0.375000000000      0.250000000000
      0.250000000000     -0.375000000000      0.250000000000
      0.375000000000     -0.375000000000      0.250000000000
      0.500000000000     -0.375000000000      0.250000000000
     -0.375000000000     -0.375000000000      0.250000000000
     -0.250000000000     -0.375000000000      0.250000000000
     -0.125000000000     -0.375000000000      0.250000000000
      0.000000000000     -0.250000000000      0.250000000000
      0.125000000000     -0.250000000000      0.250000000000
      0.250000000000     -0.250000000000      0.250000000000
      0.375000000000     -0.250000000000      0.250000000000
      0.500000000000     -0.250000000000      0.250000000000
     -0.375000000000     -0.250000000000      0.250000000000
     -0.250000000000     -0.250000000000      0.250000000000
     -0.125000000000     -0.250000000000      0.250000000000
      0.000000000000     -0.125000000000      0.250000000000
      0.125000000000     -0.125000000000      0.250000000000
      0.250000000000     -0.125000000000      0.250000000000
      0.375000000000     -0.125000000000      0.250000000000
      0.500000000000     -0.125000000000      0.250000000000
     -0.375000000000     -0.125000000000      0.250000000000
     -0.250000000000     -0.125000000000      0.250000000000
     -0.125000000000     -0.125000000000      0.250000000000
      0.000000000000      0.000000000000      0.375000000000
      0.125000000000     -0.000000000000      0.375000000000
      0.250000000000     -0.000000000000      0.375000000000
      0.375000000000     -0.000000000000      0.375000000000
      0.500000000000     -0.000000000000      0.375000000000
     -0.375000000000      0.000000000000      0.375000000000
     -0.250000000000      0.000000000000      0.375000000000
     -0.125000000000      0.000000000000      0.375000000000
      0.000000000000      0.125000000000      0.375000000000
      0.125000000000      0.125000000000      0.375000000000
      0.250000000000      0.125000000000      0.375000000000
      0.375000000000      0.125000000000      0.375000000000
      0.500000000000      0.125000000000      0.375000000000
     -0.375000000000      0.125000000000      0.375000000000
     -0.250000000000      0.125000000000      0.375000000000
     -0.125000000000      0.125000000000      0.375000000000
      0.000000000000      0.250000000000      0.375000000000
      0.125000000000      0.250000000000      0.375000000000
      0.250000000000      0.250000000000      0.375000000000
      0.375000000000      0.250000000000      0.375000000000
      0.500000000000      0.250000000000      0.375000000000
     -0.375000000000      0.250000000000      0.375000000000
     -0.250000000000      0.250000000000      0.375000000000
     -0.125000000000      0.250000000000      0.375000000000
      0.000000000000      0.375000000000      0.375000000000
      0.125000000000      0.375000000000      0.375000000000
      0.250000000000      0.375000000000      0.375000000000
      0.375000000000      0.375000000000      0.375000000000
      0.500000000000      0.375000000000      0.375000000000
     -0.375000000000      0.375000000000      0.375000000000
     -0.250000000000      0.375000000000      0.375000000000
     -0.125000000000      0.375000000000      0.375000000000
      0.000000000000      0.500000000000      0.375000000000
      0.125000000000      0.500000000000      0.375000000000
      0.250000000000      0.500000000000      0.375000000000
      0.375000000000      0.500000000000      0.375000000000
      0.500000000000      0.500000000000      0.375000000000
     -0.375000000000      0.500000000000      0.375000000000
     -0.250000000000      0.500000000000      0.375000000000
     -0.125000000000      0.500000000000      0.375000000000
      0.000000000000     -0.375000000000      0.375000000000
      0.125000000000     -0.375000000000      0.375000000000
      0.250000000000     -0.375000000000      0.375000000000
      0.375000000000     -0.375000000000      0.375000000000
      0.500000000000     -0.375000000000      0.375000000000
     -0.375000000000     -0.375000000000      0.375000000000
     -0.250000000000     -0.375000000000      0.375000000000
     -0.125000000000     -0.375000000000      0.375000000000
      0.000000000000     -0.250000000000      0.375000000000
      0.125000000000     -0.250000000000      0.375000000000
      0.250000000000     -0.250000000000      0.375000000000
      0.375000000000     -0.250000000000      0.375000000000
      0.500000000000     -0.250000000000      0.375000000000
     -0.375000000000     -0.250000000000      0.375000000000
     -0.250000000000     -0.250000000000      0.375000000000
     -0.125000000000     -0.250000000000      0.375000000000
      0.000000000000     -0.125000000000      0.375000000000
      0.125000000000     -0.125000000000      0.375000000000
      0.250000000000     -0.125000000000      0.375000000000
      0.375000000000     -0.125000000000      0.375000000000
      0.500000000000     -0.125000000000      0.375000000000
     -0.375000000000     -0.125000000000      0.375000000000
     -0.250000000000     -0.125000000000      0.375000000000
     -0.125000000000     -0.125000000000      0.375000000000
      0.000000000000      0.000000000000      0.500000000000
      0.125000000000     -0.000000000000      0.500000000000
      0.250000000000     -0.000000000000      0.500000000000
      0.375000000000     -0.000000000000      0.500000000000
      0.500000000000     -0.000000000000      0.500000000000
     -0.375000000000      0.000000000000      0.500000000000
     -0.250000000000      0.000000000000      0.500000000000
     -0.125000000000      0.000000000000      0.500000000000
      0.000000000000      0.125000000000      0.500000000000
      0.125000000000      0.125000000000      0.500000000000
      0.250000000000      0.125000000000      0.500000000000
      0.375000000000      0.125000000000      0.500000000000
      0.500000000000      0.125000000000      0.500000000000
     -0.375000000000      0.125000000000      0.500000000000
     -0.250000000000      0.125000000000      0.500000000000
     -0.125000000000      0.125000000000      0.500000000000
      0.000000000000      0.250000000000      0.500000000000
      0.125000000000      0.250000000000      0.500000000000
      0.250000000000      0.250000000000      0.500000000000
      0.375000000000      0.250000000000      0.500000000000
      0.500000000000      0.250000000000      0.500000000000
     -0.375000000000      0.250000000000      0.500000000000
     -0.250000000000      0.250000000000      0.500000000000
     -0.125000000000      0.250000000000      0.500000000000
      0.000000000000      0.375000000000      0.500000000000
      0.125000000000      0.375000000000      0.500000000000
      0.250000000000      0.375000000000      0.500000000000
      0.375000000000      0.375000000000      0.500000000000
      0.500000000000      0.375000000000      0.500000000000
     -0.375000000000      0.375000000000      0.500000000000
     -0.250000000000      0.375000000000      0.500000000000
     -0.125000000000      0.375000000000      0.500000000000
      0.000000000000      0.500000000000      0.500000000000
      0.125000000000      0.500000000000      0.500000000000
      0.250000000000      0.500000000000      0.500000000000
      0.375000000000      0.500000000000      0.500000000000
      0.500000000000      0.500000000000      0.500000000000
     -0.375000000000      0.500000000000      0.500000000000
     -0.250000000000      0.500000000000      0.500000000000
     -0.125000000000      0.500000000000      0.500000000000
      0.000000000000     -0.375000000000      0.500000000000
      0.125000000000     -0.375000000000      0.500000000000
      0.250000000000     -0.375000000000      0.500000000000
      0.375000000000     -0.375000000000      0.500000000000
      0.500000000000     -0.375000000000      0.500000000000
     -0.375000000000     -0.375000000000      0.500000000000
     -0.250000000000     -0.375000000000      0.500000000000
     -0.125000000000     -0.375000000000      0.500000000000
      0.000000000000     -0.250000000000      0.500000000000
      0.125000000000     -0.250000000000      0.500000000000
      0.250000000000     -0.250000000000      0.500000000000
      0.375000000000     -0.250000000000      0.500000000000
      0.500000000000     -0.250000000000      0.500000000000
     -0.375000000000     -0.250000000000      0.500000000000
     -0.250000000000     -0.250000000000      0.500000000000
     -0.125000000000     -0.250000000000      0.500000000000
      0.000000000000     -0.125000000000      0.500000000000
      0.125000000000     -0.125000000000      0.500000000000
      0.250000000000     -0.125000000000      0.500000000000
      0.375000000000     -0.125000000000      0.500000000000
      0.500000000000     -0.125000000000      0.500000000000
     -0.375000000000     -0.125000000000      0.500000000000
     -0.250000000000     -0.125000000000      0.500000000000
     -0.125000000000     -0.125000000000      0.500000000000
      0.000000000000      0.000000000000     -0.375000000000
      0.125000000000     -0.000000000000     -0.375000000000
      0.250000000000     -0.000000000000     -0.375000000000
      0.375000000000     -0.000000000000     -0.375000000000
      0.500000000000     -0.000000000000     -0.375000000000
     -0.375000000000      0.000000000000     -0.375000000000
     -0.250000000000      0.000000000000     -0.375000000000
     -0.125000000000      0.000000000000     -0.375000000000
      0.000000000000      0.125000000000     -0.375000000000
      0.125000000000      0.125000000000     -0.375000000000
      0.250000000000      0.125000000000     -0.375000000000
      0.375000000000      0.125000000000     -0.375000000000
      0.500000000000      0.125000000000     -0.375000000000
     -0.375000000000      0.125000000000     -0.375000000000
     -0.250000000000      0.125000000000     -0.375000000000
     -0.125000000000      0.125000000000     -0.375000000000
      0.000000000000      0.250000000000     -0.375000000000
      0.125000000000      0.250000000000     -0.375000000000
      0.250000000000      0.250000000000     -0.375000000000
      0.375000000000      0.250000000000     -0.375000000000
      0.500000000000      0.250000000000     -0.375000000000
     -0.375000000000      0.250000000000     -0.375000000000
     -0.250000000000      0.250000000000     -0.375000000000
     -0.125000000000      0.250000000000     -0.375000000000
      0.000000000000      0.375000000000     -0.375000000000
      0.125000000000      0.375000000000     -0.375000000000
      0.250000000000      0.375000000000     -0.375000000000
      0.375000000000      0.375000000000     -0.375000000000
      0.500000000000      0.375000000000     -0.375000000000
     -0.375000000000      0.375000000000     -0.375000000000
     -0.250000000000      0.375000000000     -0.375000000000
     -0.125000000000      0.375000000000     -0.375000000000
      0.000000000000      0.500000000000     -0.375000000000
      0.125000000000      0.500000000000     -0.375000000000
      0.250000000000      0.500000000000     -0.375000000000
      0.375000000000      0.500000000000     -0.375000000000
      0.500000000000      0.500000000000     -0.375000000000
     -0.375000000000      0.500000000000     -0.375000000000
     -0.250000000000      0.500000000000     -0.375000000000
     -0.125000000000      0.500000000000     -0.375000000000
      0.000000000000     -0.375000000000     -0.375000000000
      0.125000000000     -0.375000000000     -0.375000000000
      0.250000000000     -0.375000000000     -0.375000000000
      0.375000000000     -0.375000000000     -0.375000000000
      0.500000000000     -0.375000000000     -0.375000000000
     -0.375000000000     -0.375000000000     -0.375000000000
     -0.250000000000     -0.375000000000     -0.375000000000
     -0.125000000000     -0.375000000000     -0.375000000000
      0.000000000000     -0.250000000000     -0.375000000000
      0.125000000000     -0.250000000000     -0.375000000000
      0.250000000000     -0.250000000000     -0.375000000000
      0.375000000000     -0.250000000000     -0.375000000000
      0.500000000000     -0.250000000000     -0.375000000000
     -0.375000000000     -0.250000000000     -0.375000000000
     -0.250000000000     -0.250000000000     -0.375000000000
     -0.125000000000     -0.250000000000     -0.375000000000
      0.000000000000     -0.125000000000     -0.375000000000
      0.125000000000     -0.125000000000     -0.375000000000
      0.250000000000     -0.125000000000     -0.375000000000
      0.375000000000     -0.125000000000     -0.375000000000
      0.500000000000     -0.125000000000     -0.375000000000
     -0.375000000000     -0.125000000000     -0.375000000000
     -0.250000000000     -0.125000000000     -0.375000000000
     -0.125000000000     -0.125000000000     -0.375000000000
      0.000000000000      0.000000000000     -0.250000000000
      0.125000000000     -0.000000000000     -0.250000000000
      0.250000000000     -0.000000000000     -0.250000000000
      0.375000000000     -0.000000000000     -0.250000000000
      0.500000000000     -0.000000000000     -0.250000000000
     -0.375000000000      0.000000000000     -0.250000000000
     -0.250000000000      0.000000000000     -0.250000000000
     -0.125000000000      0.000000000000     -0.250000000000
      0.000000000000      0.125000000000     -0.250000000000
      0.125000000000      0.125000000000     -0.250000000000
      0.250000000000      0.125000000000     -0.250000000000
      0.375000000000      0.125000000000     -0.250000000000
      0.500000000000      0.125000000000     -0.250000000000
     -0.375000000000      0.125000000000     -0.250000000000
     -0.250000000000      0.125000000000     -0.250000000000
     -0.125000000000      0.125000000000     -0.250000000000
      0.000000000000      0.250000000000     -0.250000000000
      0.125000000000      0.250000000000     -0.250000000000
      0.250000000000      0.250000000000     -0.250000000000
      0.375000000000      0.250000000000     -0.250000000000
      0.500000000000      0.250000000000     -0.250000000000
     -0.375000000000      0.250000000000     -0.250000000000
     -0.250000000000      0.250000000000     -0.250000000000
     -0.125000000000      0.250000000000     -0.250000000000
      0.000000000000      0.375000000000     -0.250000000000
      0.125000000000      0.375000000000     -0.250000000000
      0.250000000000      0.375000000000     -0.250000000000
      0.375000000000      0.375000000000     -0.250000000000
      0.500000000000      0.375000000000     -0.250000000000
     -0.375000000000      0.375000000000     -0.250000000000
     -0.250000000000      0.375000000000     -0.250000000000
     -0.125000000000      0.375000000000     -0.250000000000
      0.000000000000      0.500000000000     -0.250000000000
      0.125000000000      0.500000000000     -0.250000000000
      0.250000000000      0.500000000000     -0.250000000000
      0.375000000000      0.500000000000     -0.250000000000
      0.500000000000      0.500000000000     -0.250000000000
     -0.375000000000      0.500000000000     -0.250000000000
     -0.250000000000      0.500000000000     -0.250000000000
     -0.125000000000      0.500000000000     -0.250000000000
      0.000000000000     -0.375000000000     -0.250000000000
      0.125000000000     -0.375000000000     -0.250000000000
      0.250000000000     -0.375000000000     -0.250000000000
      0.375000000000     -0.375000000000     -0.250000000000
      0.500000000000     -0.375000000000     -0.250000000000
     -0.375000000000     -0.375000000000     -0.250000000000
     -0.250000000000     -0.375000000000     -0.250000000000
     -0.125000000000     -0.375000000000     -0.250000000000
      0.000000000000     -0.250000000000     -0.250000000000
      0.125000000000     -0.250000000000     -0.250000000000
      0.250000000000     -0.250000000000     -0.250000000000
      0.375000000000     -0.250000000000     -0.250000000000
      0.500000000000     -0.250000000000     -0.250000000000
     -0.375000000000     -0.250000000000     -0.250000000000
     -0.250000000000     -0.250000000000     -0.250000000000
     -0.125000000000     -0.250000000000     -0.250000000000
      0.000000000000     -0.125000000000     -0.250000000000
      0.125000000000     -0.125000000000     -0.250000000000
      0.250000000000     -0.125000000000     -0.250000000000
      0.375000000000     -0.125000000000     -0.250000000000
      0.500000000000     -0.125000000000     -0.250000000000
     -0.375000000000     -0.125000000000     -0.250000000000
     -0.250000000000     -0.125000000000     -0.250000000000
     -0.125000000000     -0.125000000000     -0.250000000000
      0.000000000000      0.000000000000     -0.125000000000
      0.125000000000     -0.000000000000     -0.125000000000
      0.250000000000     -0.000000000000     -0.125000000000
      0.375000000000     -0.000000000000     -0.125000000000
      0.500000000000     -0.000000000000     -0.125000000000
     -0.375000000000      0.000000000000     -0.125000000000
     -0.250000000000      0.000000000000     -0.125000000000
     -0.125000000000      0.000000000000     -0.125000000000
      0.000000000000      0.125000000000     -0.125000000000
      0.125000000000      0.125000000000     -0.125000000000
      0.250000000000      0.125000000000     -0.125000000000
      0.375000000000      0.125000000000     -0.125000000000
      0.500000000000      0.125000000000     -0.125000000000
     -0.375000000000      0.125000000000     -0.125000000000
     -0.250000000000      0.125000000000     -0.125000000000
     -0.125000000000      0.125000000000     -0.125000000000
      0.000000000000      0.250000000000     -0.125000000000
      0.125000000000      0.250000000000     -0.125000000000
      0.250000000000      0.250000000000     -0.125000000000
      0.375000000000      0.250000000000     -0.125000000000
      0.500000000000      0.250000000000     -0.125000000000
     -0.375000000000      0.250000000000     -0.125000000000
     -0.250000000000      0.250000000000     -0.125000000000
     -0.125000000000      0.250000000000     -0.125000000000
      0.000000000000      0.375000000000     -0.125000000000