Generated POSCAR from win with the magnetic moments
1.0
     5.738699913      0.000000000      0.000000000
    -2.869349956      4.969859909      0.000000000
     0.000000000      0.000000000     12.112600327
Nb V S 
6 2 12 
direct
     0.000000000      0.000000000      0.000000000
     0.000000000      0.000000000      0.500000003
     0.333329998      0.666669999      0.995999998
     0.666660006      0.333329999      0.004000000
     0.333340001      0.666669999      0.504000003
     0.666669991      0.333329999      0.496000003
     0.333329998      0.666669999      0.250000002
     0.666660006      0.333329999      0.749999996
     0.663300001      0.001099991      0.129799998
     0.662200002      0.998900007      0.870200000
     0.337799987      0.001099991      0.370199997
     0.336700006      0.998900007      0.629800001
     0.998899996      0.662199994      0.129799998
     0.336699994      0.337800005      0.870200000
     0.663299995      0.662199994      0.370199997
     0.001100010      0.337800005      0.629800001
     0.337799997      0.336699994      0.129799998
     0.001099995      0.663300004      0.870200000
     0.998899995      0.336699994      0.370199997
     0.662200010      0.663300004      0.629800001
# MAGMOM = 0.000000 0.000000 0.000000 0.000000 0.000000 0.000000 0.000000 0.000000 0.000000 0.000000 0.000000 0.000000 0.000000 0.000000 0.000000 0.000000 0.000000 0.000000 0.000000 0.000000 1.500000 -0.000000 -0.000000 -1.500000 0.000000 0.000000 0.000000 0.000000 0.000000 0.000000 0.000000 0.000000 0.000000 0.000000 0.000000 0.000000 0.000000 0.000000 0.000000 0.000000 0.000000 0.000000 0.000000 0.000000 0.000000 0.000000 0.000000 0.000000 0.000000 0.000000 0.000000 0.000000 0.000000 0.000000 0.000000 0.000000 0.000000 0.000000 0.000000 0.000000
