num_bands = 168
num_wann = 40
dis_win_min = 3.77
dis_win_max = 11.27
dis_froz_min = 5.87
dis_froz_max = 10.86
dis_num_iter = 500
num_iter = 500
conv_tol = 1.0d-6
bands_plot_format = gnuplot
bands_num_points = 100
guiding_centres = true
write_xyz = true
write_hr = true
bands_plot = true

begin projections 
Nb:dz2;dxz;dyz;dx2-y2;dxy
V:dz2;dxz;dyz;dx2-y2;dxy
end projections 

begin kpoint_path  
G 0.0000000000 0.0000000000 0.0000000000 M 0.5000000000 0.0000000000 0.0000000000    
M 0.5000000000 0.0000000000 0.0000000000 K 0.3333333333 0.3333333333 0.0000000000     
K 0.3333333333 0.3333333333 0.0000000000 G 0.0000000000 0.0000000000 0.0000000000
G 0.0000000000 0.0000000000 0.0000000000 A 0.0000000000 0.0000000000 0.5000000000
A 0.0000000000 0.0000000000 0.5000000000 L 0.5000000000 0.0000000000 0.5000000000
L 0.5000000000 0.0000000000 0.5000000000 H 0.3333333333 0.3333333333 0.5000000000
H 0.3333333333 0.3333333333 0.5000000000 A 0.0000000000 0.0000000000 0.5000000000
end kpoint_path




begin unit_cell_cart
     5.7386999130     0.0000000000     0.00000000000
    -2.8693499565     4.9698599094     0.00000000000
     0.0000000        0.0000000000     12.1126003265
end unit_cell_cart



mp_grid =     8     8    4


begin atoms_cart
Nb       0.0000000     0.0000000     0.0000000
Nb       0.0000000     0.0000000     6.0563002
Nb      -0.0000287     3.3132565    12.0641499
Nb       2.8693213     1.6566034     0.0484504
Nb       0.0000287     3.3132565     6.1047506
Nb       2.8693786     1.6566034     6.0078498
V       -0.0000287     3.3132565     3.0281501
V        2.8693213     1.6566034     9.0844502
S        3.8033234     0.0054668     1.5722155
S        0.9339734     4.9643931    10.5403848
S        1.9353765     0.0054668     4.4840846
S       -0.9339734     4.9643931     7.6285157
S        3.8323038     3.2910412     1.5722155
S        0.9629538     1.6788187    10.5403848
S        1.9063961     3.2910412     4.4840846
S       -0.9629538     1.6788187     7.6285157
S        0.9724227     1.6733518     1.5722155
S       -1.8969273     3.2965081    10.5403848
S        4.7662772     1.6733518     4.4840846
S        1.8969273     3.2965081     7.6285157
end atoms_cart

begin kpoints
      0.000000000000      0.000000000000      0.000000000000
      0.125000000000      0.000000000000      0.000000000000
      0.250000000000      0.000000000000      0.000000000000
      0.375000000000      0.000000000000      0.000000000000
      0.500000000000      0.000000000000      0.000000000000
     -0.375000000000     -0.000000000000      0.000000000000
     -0.250000000000     -0.000000000000      0.000000000000
     -0.125000000000     -0.000000000000      0.000000000000
      0.000000000000      0.125000000000      0.000000000000
      0.125000000000      0.125000000000      0.000000000000
      0.250000000000      0.125000000000      0.000000000000
      0.375000000000      0.125000000000      0.000000000000
      0.500000000000      0.125000000000      0.000000000000
     -0.375000000000      0.125000000000      0.000000000000
     -0.250000000000      0.125000000000      0.000000000000
     -0.125000000000      0.125000000000      0.000000000000
      0.000000000000      0.250000000000      0.000000000000
      0.125000000000      0.250000000000      0.000000000000
      0.250000000000      0.250000000000      0.000000000000
      0.375000000000      0.250000000000      0.000000000000
      0.500000000000      0.250000000000      0.000000000000
     -0.375000000000      0.250000000000      0.000000000000
     -0.250000000000      0.250000000000      0.000000000000
     -0.125000000000      0.250000000000      0.000000000000
      0.000000000000      0.375000000000      0.000000000000
      0.125000000000      0.375000000000      0.000000000000
      0.250000000000      0.375000000000      0.000000000000
      0.375000000000      0.375000000000      0.000000000000
      0.500000000000      0.375000000000      0.000000000000
     -0.375000000000      0.375000000000      0.000000000000
     -0.250000000000      0.375000000000      0.000000000000
     -0.125000000000      0.375000000000      0.000000000000
      0.000000000000      0.500000000000      0.000000000000
      0.125000000000      0.500000000000      0.000000000000
      0.250000000000      0.500000000000      0.000000000000
      0.375000000000      0.500000000000      0.000000000000
      0.500000000000      0.500000000000      0.000000000000
     -0.375000000000      0.500000000000      0.000000000000
     -0.250000000000      0.500000000000      0.000000000000
     -0.125000000000      0.500000000000      0.000000000000
      0.000000000000     -0.375000000000      0.000000000000
      0.125000000000     -0.375000000000      0.000000000000
      0.250000000000     -0.375000000000      0.000000000000
      0.375000000000     -0.375000000000      0.000000000000
      0.500000000000     -0.375000000000      0.000000000000
     -0.375000000000     -0.375000000000      0.000000000000
     -0.250000000000     -0.375000000000      0.000000000000
     -0.125000000000     -0.375000000000      0.000000000000
      0.000000000000     -0.250000000000      0.000000000000
      0.125000000000     -0.250000000000      0.000000000000
      0.250000000000     -0.250000000000      0.000000000000
      0.375000000000     -0.250000000000      0.000000000000
      0.500000000000     -0.250000000000      0.000000000000
     -0.375000000000     -0.250000000000      0.000000000000
     -0.250000000000     -0.250000000000      0.000000000000
     -0.125000000000     -0.250000000000      0.000000000000
      0.000000000000     -0.125000000000      0.000000000000
      0.125000000000     -0.125000000000      0.000000000000
      0.250000000000     -0.125000000000      0.000000000000
      0.375000000000     -0.125000000000      0.000000000000
      0.500000000000     -0.125000000000      0.000000000000
     -0.375000000000     -0.125000000000      0.000000000000
     -0.250000000000     -0.125000000000      0.000000000000
     -0.125000000000     -0.125000000000      0.000000000000
      0.000000000000      0.000000000000      0.250000000000
      0.125000000000      0.000000000000      0.250000000000
      0.250000000000      0.000000000000      0.250000000000
      0.375000000000      0.000000000000      0.250000000000
      0.500000000000      0.000000000000      0.250000000000
     -0.375000000000     -0.000000000000      0.250000000000
     -0.250000000000     -0.000000000000      0.250000000000
     -0.125000000000     -0.000000000000      0.250000000000
      0.000000000000      0.125000000000      0.250000000000
      0.125000000000      0.125000000000      0.250000000000
      0.250000000000      0.125000000000      0.250000000000
      0.375000000000      0.125000000000      0.250000000000
      0.500000000000      0.125000000000      0.250000000000
     -0.375000000000      0.125000000000      0.250000000000
     -0.250000000000      0.125000000000      0.250000000000
     -0.125000000000      0.125000000000      0.250000000000
      0.000000000000      0.250000000000      0.250000000000
      0.125000000000      0.250000000000      0.250000000000
      0.250000000000      0.250000000000      0.250000000000
      0.375000000000      0.250000000000      0.250000000000
      0.500000000000      0.250000000000      0.250000000000
     -0.375000000000      0.250000000000      0.250000000000
     -0.250000000000      0.250000000000      0.250000000000
     -0.125000000000      0.250000000000      0.250000000000
      0.000000000000      0.375000000000      0.250000000000
      0.125000000000      0.375000000000      0.250000000000
      0.250000000000      0.375000000000      0.250000000000
      0.375000000000      0.375000000000      0.250000000000
      0.500000000000      0.375000000000      0.250000000000
     -0.375000000000      0.375000000000      0.250000000000
     -0.250000000000      0.375000000000      0.250000000000
     -0.125000000000      0.375000000000      0.250000000000
      0.000000000000      0.500000000000      0.250000000000
      0.125000000000      0.500000000000      0.250000000000
      0.250000000000      0.500000000000      0.250000000000
      0.375000000000      0.500000000000      0.250000000000
      0.500000000000      0.500000000000      0.250000000000
     -0.375000000000      0.500000000000      0.250000000000
     -0.250000000000      0.500000000000      0.250000000000
     -0.125000000000      0.500000000000      0.250000000000
      0.000000000000     -0.375000000000      0.250000000000
      0.125000000000     -0.375000000000      0.250000000000
      0.250000000000     -0.375000000000      0.250000000000
      0.375000000000     -0.375000000000      0.250000000000
      0.500000000000     -0.375000000000      0.250000000000
     -0.375000000000     -0.375000000000      0.250000000000
     -0.250000000000     -0.375000000000      0.250000000000
     -0.125000000000     -0.375000000000      0.250000000000
      0.000000000000     -0.250000000000      0.250000000000
      0.125000000000     -0.250000000000      0.250000000000
      0.250000000000     -0.250000000000      0.250000000000
      0.375000000000     -0.250000000000      0.250000000000
      0.500000000000     -0.250000000000      0.250000000000
     -0.375000000000     -0.250000000000      0.250000000000
     -0.250000000000     -0.250000000000      0.250000000000
     -0.125000000000     -0.250000000000      0.250000000000
      0.000000000000     -0.125000000000      0.250000000000
      0.125000000000     -0.125000000000      0.250000000000
      0.250000000000     -0.125000000000      0.250000000000
      0.375000000000     -0.125000000000      0.250000000000
      0.500000000000     -0.125000000000      0.250000000000
     -0.375000000000     -0.125000000000      0.250000000000
     -0.250000000000     -0.125000000000      0.250000000000
     -0.125000000000     -0.125000000000      0.250000000000
      0.000000000000      0.000000000000      0.500000000000
      0.125000000000      0.000000000000      0.500000000000
      0.250000000000      0.000000000000      0.500000000000
      0.375000000000      0.000000000000      0.500000000000
      0.500000000000      0.000000000000      0.500000000000
     -0.375000000000     -0.000000000000      0.500000000000
     -0.250000000000     -0.000000000000      0.500000000000
     -0.125000000000     -0.000000000000      0.500000000000
      0.000000000000      0.125000000000      0.500000000000
      0.125000000000      0.125000000000      0.500000000000
      0.250000000000      0.125000000000      0.500000000000
      0.375000000000      0.125000000000      0.500000000000
      0.500000000000      0.125000000000      0.500000000000
     -0.375000000000      0.125000000000      0.500000000000
     -0.250000000000      0.125000000000      0.500000000000
     -0.125000000000      0.125000000000      0.500000000000
      0.000000000000      0.250000000000      0.500000000000
      0.125000000000      0.250000000000      0.500000000000
      0.250000000000      0.250000000000      0.500000000000
      0.375000000000      0.250000000000      0.500000000000
      0.500000000000      0.250000000000      0.500000000000
     -0.375000000000      0.250000000000      0.500000000000
     -0.250000000000      0.250000000000      0.500000000000
     -0.125000000000      0.250000000000      0.500000000000
      0.000000000000      0.375000000000      0.500000000000
      0.125000000000      0.375000000000      0.500000000000
      0.250000000000      0.375000000000      0.500000000000
      0.375000000000      0.375000000000      0.500000000000
      0.500000000000      0.375000000000      0.500000000000
     -0.375000000000      0.375000000000      0.500000000000
     -0.250000000000      0.375000000000      0.500000000000
     -0.125000000000      0.375000000000      0.500000000000
      0.000000000000      0.500000000000      0.500000000000
      0.125000000000      0.500000000000      0.500000000000
      0.250000000000      0.500000000000      0.500000000000
      0.375000000000      0.500000000000      0.500000000000
      0.500000000000      0.500000000000      0.500000000000
     -0.375000000000      0.500000000000      0.500000000000
     -0.250000000000      0.500000000000      0.500000000000
     -0.125000000000      0.500000000000      0.500000000000
      0.000000000000     -0.375000000000      0.500000000000
      0.125000000000     -0.375000000000      0.500000000000
      0.250000000000     -0.375000000000      0.500000000000
      0.375000000000     -0.375000000000      0.500000000000
      0.500000000000     -0.375000000000      0.500000000000
     -0.375000000000     -0.375000000000      0.500000000000
     -0.250000000000     -0.375000000000      0.500000000000
     -0.125000000000     -0.375000000000      0.500000000000
      0.000000000000     -0.250000000000      0.500000000000
      0.125000000000     -0.250000000000      0.500000000000
      0.250000000000     -0.250000000000      0.500000000000
      0.375000000000     -0.250000000000      0.500000000000
      0.500000000000     -0.250000000000      0.500000000000
     -0.375000000000     -0.250000000000      0.500000000000
     -0.250000000000     -0.250000000000      0.500000000000
     -0.125000000000     -0.250000000000      0.500000000000
      0.000000000000     -0.125000000000      0.500000000000
      0.125000000000     -0.125000000000      0.500000000000
      0.250000000000     -0.125000000000      0.500000000000
      0.375000000000     -0.125000000000      0.500000000000
      0.500000000000     -0.125000000000      0.500000000000
     -0.375000000000     -0.125000000000      0.500000000000
     -0.250000000000     -0.125000000000      0.500000000000
     -0.125000000000     -0.125000000000      0.500000000000
      0.000000000000      0.000000000000     -0.250000000000
      0.125000000000      0.000000000000     -0.250000000000
      0.250000000000      0.000000000000     -0.250000000000
      0.375000000000      0.000000000000     -0.250000000000
      0.500000000000      0.000000000000     -0.250000000000
     -0.375000000000     -0.000000000000     -0.250000000000
     -0.250000000000     -0.000000000000     -0.250000000000
     -0.125000000000     -0.000000000000     -0.250000000000
      0.000000000000      0.125000000000     -0.250000000000
      0.125000000000      0.125000000000     -0.250000000000
      0.250000000000      0.125000000000     -0.250000000000
      0.375000000000      0.125000000000     -0.250000000000
      0.500000000000      0.125000000000     -0.250000000000
     -0.375000000000      0.125000000000     -0.250000000000
     -0.250000000000      0.125000000000     -0.250000000000
     -0.125000000000      0.125000000000     -0.250000000000
      0.000000000000      0.250000000000     -0.250000000000
      0.125000000000      0.250000000000     -0.250000000000
      0.250000000000      0.250000000000     -0.250000000000
      0.375000000000      0.250000000000     -0.250000000000
      0.500000000000      0.250000000000     -0.250000000000
     -0.375000000000      0.250000000000     -0.250000000000
     -0.250000000000      0.250000000000     -0.250000000000
     -0.125000000000      0.250000000000     -0.250000000000
      0.000000000000      0.375000000000     -0.250000000000
      0.125000000000      0.375000000000     -0.250000000000
      0.250000000000      0.375000000000     -0.250000000000
      0.375000000000      0.375000000000     -0.250000000000
      0.500000000000      0.375000000000     -0.250000000000
     -0.375000000000      0.375000000000     -0.250000000000
     -0.250000000000      0.375000000000     -0.250000000000
     -0.125000000000      0.375000000000     -0.250000000000
      0.000000000000      0.500000000000     -0.250000000000
      0.125000000000      0.500000000000     -0.250000000000
      0.250000000000      0.500000000000     -0.250000000000
      0.375000000000      0.500000000000     -0.250000000000
      0.500000000000      0.500000000000     -0.250000000000
     -0.375000000000      0.500000000000     -0.250000000000
     -0.250000000000      0.500000000000     -0.250000000000
     -0.125000000000      0.500000000000     -0.250000000000
      0.000000000000     -0.375000000000     -0.250000000000
      0.125000000000     -0.375000000000     -0.250000000000
      0.250000000000     -0.375000000000     -0.250000000000
      0.375000000000     -0.375000000000     -0.250000000000
      0.500000000000     -0.375000000000     -0.250000000000
     -0.375000000000     -0.375000000000     -0.250000000000
     -0.250000000000     -0.375000000000     -0.250000000000
     -0.125000000000     -0.375000000000     -0.250000000000
      0.000000000000     -0.250000000000     -0.250000000000
      0.125000000000     -0.250000000000     -0.250000000000
      0.250000000000     -0.250000000000     -0.250000000000
      0.375000000000     -0.250000000000     -0.250000000000
      0.500000000000     -0.250000000000     -0.250000000000
     -0.375000000000     -0.250000000000     -0.250000000000
     -0.250000000000     -0.250000000000     -0.250000000000
     -0.125000000000     -0.250000000000     -0.250000000000
      0.000000000000     -0.125000000000     -0.250000000000
      0.125000000000     -0.125000000000     -0.250000000000
      0.250000000000     -0.125000000000     -0.250000000000
      0.375000000000     -0.125000000000     -0.250000000000
      0.500000000000     -0.125000000000     -0.250000000000
     -0.375000000000     -0.125000000000     -0.250000000000
     -0.250000000000     -0.125000000000     -0.250000000000
     -0.125000000000     -0.125000000000     -0.250000000000
end kpoints
